c ind 144 142 140 102 100 98 97 126 96 95 124 94 106 93 122 92 104 91 120 90 108 110 112 114 116 118 128 130 132 134 136 138 0
p cnf 251 571
1 0
-2 0
1 0
-2 0
-3 0
-4 0
-5 0
-6 0
-7 0
-8 0
-9 0
-10 0
-11 0
-12 0
-13 0
-14 0
-15 0
-16 0
-17 0
-18 0
-19 0
-20 0
21 0
-21 22 -23 0
-21 -22 23 0
21 22 23 0
21 -22 -23 0
24 0
-24 25 -26 0
-24 -25 26 0
24 25 26 0
24 -25 -26 0
27 0
-27 28 -29 0
-27 -28 29 0
27 28 29 0
27 -28 -29 0
30 0
-30 31 -32 0
-30 -31 32 0
30 31 32 0
30 -31 -32 0
33 0
-33 34 -35 0
-33 -34 35 0
33 34 35 0
33 -34 -35 0
36 0
-36 37 -38 0
-36 -37 38 0
36 37 38 0
36 -37 -38 0
39 0
-39 40 -41 0
-39 -40 41 0
39 40 41 0
39 -40 -41 0
42 0
-42 43 -44 0
-42 -43 44 0
42 43 44 0
42 -43 -44 0
45 0
-45 46 -47 0
-45 -46 47 0
45 46 47 0
45 -46 -47 0
48 0
-48 49 -50 0
-48 -49 50 0
48 49 50 0
48 -49 -50 0
51 0
-51 52 -53 0
-51 -52 53 0
51 52 53 0
51 -52 -53 0
54 0
-54 55 -56 0
-54 -55 56 0
54 55 56 0
54 -55 -56 0
57 0
-57 58 -59 0
-57 -58 59 0
57 58 59 0
57 -58 -59 0
60 0
-60 61 -62 0
-60 -61 62 0
60 61 62 0
60 -61 -62 0
63 0
-63 64 -65 0
-63 -64 65 0
63 64 65 0
63 -64 -65 0
66 0
-66 67 -68 0
-66 -67 68 0
66 67 68 0
66 -67 -68 0
69 0
-69 70 -71 0
-69 -70 71 0
69 70 71 0
69 -70 -71 0
72 0
-72 73 -74 0
-72 -73 74 0
72 73 74 0
72 -73 -74 0
75 0
-75 76 -77 0
-75 -76 77 0
75 76 77 0
75 -76 -77 0
78 0
-78 79 -80 0
-78 -79 80 0
78 79 80 0
78 -79 -80 0
81 0
-81 82 -83 0
-81 -82 83 0
81 82 83 0
81 -82 -83 0
84 0
-84 85 -86 0
-84 -85 86 0
84 85 86 0
84 -85 -86 0
87 0
-87 88 -89 0
-87 -88 89 0
87 88 89 0
87 -88 -89 0
-90 0
-91 0
-92 0
-93 0
-94 0
-95 0
-96 0
-97 0
-98 0
99 0
-99 100 -23 0
-99 -100 23 0
99 100 23 0
99 -100 -23 0
101 0
-101 102 -26 0
-101 -102 26 0
101 102 26 0
101 -102 -26 0
103 0
-103 104 -29 0
-103 -104 29 0
103 104 29 0
103 -104 -29 0
105 0
-105 106 -32 0
-105 -106 32 0
105 106 32 0
105 -106 -32 0
107 0
-107 108 -35 0
-107 -108 35 0
107 108 35 0
107 -108 -35 0
109 0
-109 110 -38 0
-109 -110 38 0
109 110 38 0
109 -110 -38 0
111 0
-111 112 -41 0
-111 -112 41 0
111 112 41 0
111 -112 -41 0
113 0
-113 114 -44 0
-113 -114 44 0
113 114 44 0
113 -114 -44 0
115 0
-115 116 -47 0
-115 -116 47 0
115 116 47 0
115 -116 -47 0
117 0
-117 118 -50 0
-117 -118 50 0
117 118 50 0
117 -118 -50 0
119 0
-119 120 -53 0
-119 -120 53 0
119 120 53 0
119 -120 -53 0
121 0
-121 122 -56 0
-121 -122 56 0
121 122 56 0
121 -122 -56 0
123 0
-123 124 -59 0
-123 -124 59 0
123 124 59 0
123 -124 -59 0
125 0
-125 126 -62 0
-125 -126 62 0
125 126 62 0
125 -126 -62 0
127 0
-127 128 -65 0
-127 -128 65 0
127 128 65 0
127 -128 -65 0
129 0
-129 130 -68 0
-129 -130 68 0
129 130 68 0
129 -130 -68 0
131 0
-131 132 -71 0
-131 -132 71 0
131 132 71 0
131 -132 -71 0
133 0
-133 134 -74 0
-133 -134 74 0
133 134 74 0
133 -134 -74 0
135 0
-135 136 -77 0
-135 -136 77 0
135 136 77 0
135 -136 -77 0
137 0
-137 138 -80 0
-137 -138 80 0
137 138 80 0
137 -138 -80 0
139 0
-139 140 -83 0
-139 -140 83 0
139 140 83 0
139 -140 -83 0
141 0
-141 142 -86 0
-141 -142 86 0
141 142 86 0
141 -142 -86 0
143 0
-143 144 -89 0
-143 -144 89 0
143 144 89 0
143 -144 -89 0
-145 0
-146 0
-147 0
-148 0
-149 0
-150 0
-151 0
-152 0
-153 0
154 0
-154 155 -23 0
-154 -155 23 0
154 155 23 0
154 -155 -23 0
156 0
-156 157 -26 0
-156 -157 26 0
156 157 26 0
156 -157 -26 0
158 0
-158 159 -29 0
-158 -159 29 0
158 159 29 0
158 -159 -29 0
160 0
-160 161 -32 0
-160 -161 32 0
160 161 32 0
160 -161 -32 0
162 0
-162 163 -35 0
-162 -163 35 0
162 163 35 0
162 -163 -35 0
164 0
-164 165 -38 0
-164 -165 38 0
164 165 38 0
164 -165 -38 0
166 0
-166 167 -41 0
-166 -167 41 0
166 167 41 0
166 -167 -41 0
168 0
-168 169 -44 0
-168 -169 44 0
168 169 44 0
168 -169 -44 0
170 0
-170 171 -47 0
-170 -171 47 0
170 171 47 0
170 -171 -47 0
172 0
-172 173 -50 0
-172 -173 50 0
172 173 50 0
172 -173 -50 0
174 0
-174 175 -53 0
-174 -175 53 0
174 175 53 0
174 -175 -53 0
176 0
-176 177 -56 0
-176 -177 56 0
176 177 56 0
176 -177 -56 0
178 0
-178 179 -59 0
-178 -179 59 0
178 179 59 0
178 -179 -59 0
180 0
-180 181 -62 0
-180 -181 62 0
180 181 62 0
180 -181 -62 0
182 0
-182 183 -65 0
-182 -183 65 0
182 183 65 0
182 -183 -65 0
184 0
-184 185 -68 0
-184 -185 68 0
184 185 68 0
184 -185 -68 0
186 0
-186 187 -71 0
-186 -187 71 0
186 187 71 0
186 -187 -71 0
188 0
-188 189 -74 0
-188 -189 74 0
188 189 74 0
188 -189 -74 0
190 0
-190 191 -77 0
-190 -191 77 0
190 191 77 0
190 -191 -77 0
192 0
-192 193 -80 0
-192 -193 80 0
192 193 80 0
192 -193 -80 0
194 0
-194 195 -83 0
-194 -195 83 0
194 195 83 0
194 -195 -83 0
196 0
-196 197 -86 0
-196 -197 86 0
196 197 86 0
196 -197 -86 0
198 0
-198 199 -89 0
-198 -199 89 0
198 199 89 0
198 -199 -89 0
200 0
200 -89 0
200 -201 0
-200 89 201 0
-201 86 0
-201 -89 0
-201 202 0
201 -86 89 -202 0
202 -83 0
202 -203 0
-202 83 203 0
-203 77 0
-203 80 0
-203 -83 0
-203 204 0
203 -77 -80 83 -204 0
204 -74 0
204 -205 0
-204 74 205 0
-205 65 0
-205 68 0
-205 71 0
-205 -74 0
-205 206 0
205 -65 -68 -71 74 -206 0
206 -62 0
206 -207 0
-206 62 207 0
-207 -62 0
-207 208 0
207 62 -208 0
208 -59 0
208 -209 0
-208 59 209 0
-209 -59 0
-209 210 0
209 59 -210 0
210 -56 0
210 -211 0
-210 56 211 0
-211 50 0
-211 53 0
-211 -56 0
-211 212 0
211 -50 -53 56 -212 0
212 -47 0
212 -213 0
-212 47 213 0
-213 41 0
-213 44 0
-213 -47 0
213 -41 -44 47 0
214 0
214 89 0
214 -215 0
-214 -89 215 0
-215 -86 0
-215 89 0
-215 216 0
215 86 -89 -216 0
216 83 0
216 -217 0
-216 -83 217 0
-217 83 0
-217 218 0
217 -83 -218 0
218 80 0
218 -219 0
-218 -80 219 0
-219 -77 0
-219 80 0
-219 220 0
219 77 -80 -220 0
220 74 0
220 -221 0
-220 -74 221 0
-221 74 0
-221 222 0
221 -74 -222 0
222 71 0
222 -223 0
-222 -71 223 0
-223 71 0
-223 224 0
223 -71 -224 0
224 68 0
224 -225 0
-224 -68 225 0
-225 -59 0
-225 -62 0
-225 -65 0
-225 68 0
-225 226 0
225 59 62 65 -68 -226 0
226 56 0
226 -227 0
-226 -56 227 0
-227 56 0
-227 228 0
227 -56 -228 0
228 53 0
228 -229 0
-228 -53 229 0
-229 -50 0
-229 53 0
-229 230 0
229 50 -53 -230 0
230 47 0
230 -231 0
-230 -47 231 0
-231 -44 0
-231 47 0
231 44 -47 0
232 0
232 89 0
232 -233 0
-232 -89 233 0
-233 -86 0
-233 89 0
-233 234 0
233 86 -89 -234 0
234 83 0
234 -235 0
-234 -83 235 0
-235 83 0
-235 236 0
235 -83 -236 0
236 80 0
236 -237 0
-236 -80 237 0
-237 -77 0
-237 80 0
-237 238 0
237 77 -80 -238 0
238 74 0
238 -239 0
-238 -74 239 0
-239 74 0
-239 240 0
239 -74 -240 0
240 71 0
240 -241 0
-240 -71 241 0
-241 71 0
-241 242 0
241 -71 -242 0
242 68 0
242 -243 0
-242 -68 243 0
-243 -59 0
-243 -62 0
-243 -65 0
-243 68 0
-243 244 0
243 59 62 65 -68 -244 0
244 56 0
244 -245 0
-244 -56 245 0
-245 56 0
-245 246 0
245 -56 -246 0
246 53 0
246 -247 0
-246 -53 247 0
-247 -50 0
-247 53 0
-247 248 0
247 50 -53 -248 0
248 47 0
248 -249 0
-248 -47 249 0
-249 47 0
-249 250 0
249 -47 -250 0
250 44 0
250 -251 0
-250 -44 251 0
-251 -23 0
-251 -26 0
-251 -29 0
-251 -32 0
-251 -35 0
-251 -38 0
-251 -41 0
-251 44 0
251 23 26 29 32 35 38 41 -44 0
